(set-logic ALL)
(declare-fun seed0_T_1 () Int)
(declare-fun seed0_T_2 () Bool)
(declare-fun seed0_var_0xINPUT_217523 () String)
(assert (and (or (>= seed0_T_1 (str.len seed0_var_0xINPUT_217523)) (not (str.contains (str.++ seed0_var_0xINPUT_217523 "ESMzuPywUQdYamsVWH") (str.++ seed0_var_0xINPUT_217523 "thLFwHg5e")))) (or (= seed0_T_2 (= seed0_T_1 0)) (and (> (+ seed0_T_1 720) (+ seed0_T_1 620)) (>= (- seed0_T_1 698) (* seed0_T_1 seed0_T_1)))) (or seed0_T_2 (and (<= (div seed0_T_1 seed0_T_1) (div seed0_T_1 seed0_T_1)) (= (- seed0_T_1 (- 485)) (- seed0_T_1 792))))))
(check-sat)
(exit)